\ENCODING=ISO-8859-1
\Problem name: ilog.cplex

Maximize
 obj1: 55 x(0) + 60 x(1) + 35 x(2) + 40 x(3) + 20 x(4)
Subject To
 c1: 12 x(0) + 20 x(1) + 25 x(3) + 15 x(4) <= 17280
 c2: 10 x(0) + 8 x(1) + 16 x(2) <= 11520
 c3: 20 x(0) + 20 x(1) + 20 x(2) + 20 x(3) + 20 x(4) <= 23040
End
